CMD:
./solvers/bin/cadical --plain --no-reduce -t 1600 ./data/cnfs//oc8051gm7daddr/oc8051gm7daddr.84.cnf

c --- [ banner ] -------------------------------------------------------------
c 
c CaDiCaL SAT Solver
c Copyright (c) 2016-2024
c A. Biere, M. Fleury, N. Froleyks, K. Fazekas, F. Pollitt, T. Faller
c JKU Linz, University of Freiburg, TU Wien
c 
c Version 2.1.3 5296d3d2a9bf48c154ab2acb5e44625776d821bf
c g++ (Gentoo 12.3.1_p20230526 p2) 12.3.1 20230526 -Wall -Wextra -O3 -DNDEBUG
c Sat Aug 9 07:26:21 PDT 2025 Linux cedar2.int.cedar.computecanada.ca 5.14.0-362.24.2.el9_3.x86_64 x86_64
c 
c --- [ limit ] --------------------------------------------------------------
c 
c setting time limit to 1600 seconds real time (due to '-t 1600')
c 
c --- [ parsing input ] ------------------------------------------------------
c 
c reading DIMACS file from './data/cnfs//oc8051gm7daddr/oc8051gm7daddr.84.cnf'
c opening file to read './data/cnfs//oc8051gm7daddr/oc8051gm7daddr.84.cnf'
c found 'p cnf 929689 2705718' header
c parsed 2705718 clauses in 0.40 seconds process time
c 
c --- [ options ] ------------------------------------------------------------
c 
c   --compact=false                (different from default 'true')
c   --decompose=false              (different from default 'true')
c   --deduplicate=false            (different from default 'true')
c   --elim=false                   (different from default 'true')
c   --probe=false                  (different from default 'true')
c   --reduce=false                 (different from default 'true')
c   --subsume=false                (different from default 'true')
c   --ternary=false                (different from default 'true')
c   --transred=false               (different from default 'true')
c   --vivify=false                 (different from default 'true')
c 
c --- [ solving ] ------------------------------------------------------------
c 
c time measured in process time since initialization
c 
c  seconds   reductions  redundant   irredundant
c          MB    restarts       trail        variables
c           level   conflicts       glue           remaining
c 
c *  0.40 401  0 0   0    0    0  0% 0 2473123 798322 86%
c {  0.64 411  0 0   0    0    0  0% 0 2473123 798322 86%
c i  0.65 411 129 0   0   19   16 15% 2 2473123 797659 86%
c i  0.65 411 123 0   0   21   17 15% 2 2473123 796845 86%
c i  0.65 411 89 0   0   30   23 15% 2 2473123 795168 86%
c i  0.73 411 173 0   4   52   44 17% 3 2473123 795117 86%
c i  0.73 411 169 0   4   53   44 17% 3 2473123 795080 86%
c i  1.58 414 94 0  73  747  647 20% 5 2473123 795021 86%
c }  1.66 415 90 0  90 1000  875 20% 5 2473123 795016 86%
c [  1.66 415  0 0  90 1000  875  0% 0 2473123 795016 86%
c O  1.68 415 298 0  90 1002  877 27% 3 2473123 795016 86%
c ]  3.12 417 51 0  91 3000 2669 19% 10 2473123 795016 86%
c {  3.12 417 90 0  91 3000 2669 20% 5 2473123 795016 86%
c F  3.13 417 90 0  91 3003 2672 20% 5 2473123 795016 86%
c i  3.37 417 71 0 104 3687 3279 19% 4 2473123 795010 86%
c i  3.81 417 65 0 173 4455 3972 19% 4 2473123 794927 86%
c i  4.16 417 58 0 245 5307 4750 19% 4 2473123 794908 86%
c #  4.55 418 57 0 327 6004 5390 19% 5 2473123 794908 86%
c i  4.68 418 55 0 362 6231 5606 19% 5 2473123 794873 85%
c }  5.05 418 51 0 464 7000 6316 19% 5 2473123 794871 85%
c 
c  seconds   reductions  redundant    irredundant
c          MB    restarts       trail         variables
c           level   conflicts       glue            remaining
c 
c [  5.05 418 51 0 464 7000 6316 19% 10 2473123 794871 85%
c i  5.16 418 53 0 465 7188 6486 19% 9 2473123 794860 85%
c i  5.17 418 53 0 465 7211 6506 19% 9 2473123 794850 85%
c I 24.23 433 272 0 466 10007 9038 31% 16 2473123 794848 85%
c i 24.34 433 269 0 466 10112 9129 30% 16 2473123 794842 85%
c ] 36.38 437 286 0 469 15000 13676 37% 20 2473123 794842 85%
c { 36.38 437 51 0 469 15000 13676 19% 5 2473123 794842 85%
c B 36.40 437 53 0 469 15011 13687 19% 5 2473123 794842 85%
c W 41.58 437 44 0 1507 21013 19240 19% 5 2270017 794842 85%
c i 41.74 437 44 0 1555 21198 19391 18% 5 2270017 794787 85%
c i 45.79 437 42 0 2428 26222 23961 19% 6 2270017 794716 85%
c F 46.92 437 46 0 2571 28016 25604 19% 6 2270017 794716 85%
c } 48.98 437 46 0 2826 31001 28210 19% 6 2270017 794716 85%
c [ 48.98 437 286 0 2826 31001 28210 37% 20 2270017 794716 85%
c B 55.27 437 213 0 2828 36018 32695 35% 17 2270017 794716 85%
c W 64.74 531 259 0 2833 45019 40137 32% 19 2269463 794716 85%
c O 71.90 531 190 0 2835 55021 48793 29% 17 2269463 794716 85%
c i 74.45 531 187 0 2837 57089 50698 29% 17 2269463 794714 85%
c i 74.45 531 187 0 2837 57090 50698 29% 17 2269463 794712 85%
c i 74.46 531 187 0 2837 57091 50698 29% 17 2269463 794710 85%
c 
c  seconds    reductions     redundant    irredundant
c          MB     restarts          trail         variables
c            level     conflicts        glue            remaining
c 
c ] 83.70 531 180 0 2840 63002 56104 30% 17 2269463 794710 85%
c { 83.70 531 46 0 2840 63002 56104 19% 6 2269463 794710 85%
c B 86.24 531 44 0 3489 66027 58721 19% 6 2269463 794710 85%
c i 90.02 531 44 0 4083 72095 63623 19% 7 2269463 794630 85%
... skipped 19 lines ...
c            level     conflicts        glue           remaining
c 
c i 102.47 535 44 0 5466 85406 67909 20% 7 2268026 794295 85%
c i 103.17 535 44 0 5514 86172 68629 20% 7 2268026 794294 85%
c i 106.08 535 44 0 5785 89083 71184 20% 7 2268026 794293 85%
c i 106.08 535 44 0 5785 89084 71184 20% 7 2268026 794282 85%
c i 107.41 535 44 0 5945 90370 72351 20% 7 2268026 794281 85%
c # 108.10 535 44 0 6030 91030 72953 20% 7 2268026 794281 85%
c i 109.98 535 47 0 6130 94135 75756 20% 7 2268026 794279 85%
c i 110.14 535 47 0 6130 94454 76047 20% 7 2268026 794271 85%
c i 110.27 535 49 0 6135 94775 76331 20% 7 2268026 794169 85%
c i 110.85 535 50 0 6163 95296 76798 20% 7 2268026 794157 85%
c i 110.85 535 50 0 6163 95297 76798 20% 7 2268026 794148 85%
c i 110.85 535 50 0 6163 95299 76799 20% 7 2268026 794147 85%
c i 110.85 535 50 0 6163 95301 76799 20% 7 2268026 794145 85%
c i 110.86 535 50 0 6165 95326 76820 20% 7 2268026 794140 85%
c i 110.87 535 50 0 6166 95342 76835 20% 7 2268026 794131 85%
c i 113.78 535 50 0 6447 97667 78922 20% 7 2268026 794128 85%
c i 114.28 535 50 0 6476 97969 79202 20% 7 2268026 794127 85%
c i 114.28 535 50 0 6476 97970 79202 20% 7 2268026 794126 85%
c i 114.28 535 50 0 6476 97973 79204 20% 7 2268026 794125 85%
c i 114.28 535 50 0 6476 97974 79204 20% 7 2268026 794124 85%
c 
c  seconds    reductions     redundant   irredundant
c           MB    restarts          trail        variables
c            level     conflicts        glue           remaining
c 
c i 114.29 535 50 0 6479 98001 79225 20% 7 2268026 794123 85%
c i 114.29 535 50 0 6479 98002 79225 20% 7 2268026 794122 85%
c B 121.96 535 50 0 7376 105031 85527 20% 7 2268026 794122 85%
c i 127.14 535 48 0 8137 109595 89143 20% 7 2268026 794054 85%
c i 129.66 535 46 0 8453 111786 90853 20% 7 2268026 793911 85%
c i 130.46 535 46 0 8482 112699 91438 20% 7 2268026 793777 85%
c i 137.06 535 44 0 9228 118035 95815 20% 7 2268026 793695 85%
c W 139.81 537 44 0 9412 120035 83938 20% 7 2265024 793695 85%
c } 147.14 537 44 0 10036 127003 89983 20% 7 2265024 793695 85%
c [ 147.14 537 180 0 10036 127003 89983 30% 17 2265024 793695 85%
c i 148.59 537 177 0 10037 127981 90536 30% 17 2265024 793615 85%
c B 155.84 537 149 0 10041 136036 97688 28% 16 2265024 793615 85%
c i 169.54 537 118 0 10045 148886 107975 27% 15 2265024 790818 85%
c i 169.61 537 118 0 10045 149013 108034 27% 15 2265024 788567 85%
c i 169.64 537 118 0 10045 149027 108037 27% 15 2265024 777924 84%
c i 169.67 537 118 0 10045 149043 108042 27% 15 2265024 776081 83%
c i 169.67 537 118 0 10045 149045 108043 27% 15 2265024 772564 83%
c ] 169.67 537 118 0 10045 149048 108044 27% 15 2265024 767970 83%
c 0 169.67 537 118 0 10045 149048 108044 27% 15 2265024 767970 83%
c 
c --- [ result ] -------------------------------------------------------------
c 
s UNSATISFIABLE
c 
c --- [ run-time profiling ] -------------------------------------------------
c 
c process time taken by individual solving procedures
c (percentage relative to process time for solving)
c 
c       169.27  100.00% search
c        89.13   52.65% stable
c        77.08   45.54% unstable
c         2.81    1.66% walk
c         0.40    0.24% parse
c         0.24    0.14% lucky
c         0.00    0.00% simplify
c   =================================
c       169.27   99.76% solve
c 
c last line shows process time for solving
c (percentage relative to total process time)
c 
c --- [ statistics ] ---------------------------------------------------------
c 
c chronological:             49993        33.54 %  of conflicts
c conflicts:                149048       880.53    per second
c decisions:                630191      3722.97    per second
c fixed:                    161673        17.39 %  of all variables
c learned:                  143128        96.03 %  per conflict
c learned_lits:           10919639       100.00 %  learned literals
c minimized:                     0         0.00 %  learned literals
c shrunken:                1427809        13.08 %  learned literals
c minishrunken:            1648588        15.10 %  learned literals
c otfs:                        608         0.41 %  of conflict
c propagations:         1663656417         9.83 M  per second
c rephased:                     16      9315.50    interval
c restarts:                  10045        14.84    interval
c stabilizing:                   4        42.96 %  of conflicts
c subsumed:                  13970         0.53 %  of all clauses
c strengthened:                590         0.02 %  of all clauses
c walked:                        4     37262.00    interval
c 
c seconds are measured in process time for solving
c 
c --- [ resources ] ----------------------------------------------------------
c 
c total process time since initialization:       169.67    seconds
c total real time since initialization:          170.34    seconds
c maximum resident set size of process:          633.95    MB
c 
c --- [ shutting down ] ------------------------------------------------------
c 
c exit 20
